p cnf 965 2478
51 -2 -698 0
-51 2 0
-51 698 0
52 -51 -699 0
-52 51 0
-52 699 0
53 -700 -701 0
-53 700 0
-53 701 0
54 -53 -702 0
-54 53 0
-54 702 0
55 -703 -704 0
-55 703 0
-55 704 0
56 -705 -5 0
-56 705 0
-56 5 0
57 -56 -8 0
-57 56 0
-57 8 0
58 -706 -55 0
-58 706 0
-58 55 0
59 -10 -9 0
-59 10 0
-59 9 0
60 -59 -707 0
-60 59 0
-60 707 0
61 -708 -58 0
-61 708 0
-61 58 0
62 -709 -710 0
-62 709 0
-62 710 0
63 -62 -711 0
-63 62 0
-63 711 0
64 -712 -61 0
-64 712 0
-64 61 0
65 -713 -714 0
-65 713 0
-65 714 0
66 -65 -715 0
-66 65 0
-66 715 0
67 -716 -64 0
-67 716 0
-67 64 0
68 -717 -718 0
-68 717 0
-68 718 0
69 -68 -719 0
-69 68 0
-69 719 0
70 -720 -67 0
-70 720 0
-70 67 0
71 -22 -721 0
-71 22 0
-71 721 0
72 -71 -23 0
-72 71 0
-72 23 0
73 -722 -70 0
-73 722 0
-73 70 0
74 -723 -698 0
-74 723 0
-74 698 0
75 -74 -25 0
-75 74 0
-75 25 0
76 -724 -73 0
-76 724 0
-76 73 0
77 -27 -725 0
-77 27 0
-77 725 0
78 -77 -726 0
-78 77 0
-78 726 0
79 -727 -76 0
-79 727 0
-79 76 0
80 -22 -13 0
-80 22 0
-80 13 0
81 -80 -728 0
-81 80 0
-81 728 0
82 -729 -79 0
-82 729 0
-82 79 0
83 -730 -12 0
-83 730 0
-83 12 0
84 -83 -731 0
-84 83 0
-84 731 0
85 -732 -82 0
-85 732 0
-85 82 0
86 -733 -719 0
-86 733 0
-86 719 0
87 -86 -705 0
-87 86 0
-87 705 0
88 -734 -85 0
-88 734 0
-88 85 0
89 -31 -15 0
-89 31 0
-89 15 0
90 -89 -735 0
-90 89 0
-90 735 0
91 -736 -88 0
-91 736 0
-91 88 0
92 -32 -13 0
-92 32 0
-92 13 0
93 -92 -705 0
-93 92 0
-93 705 0
94 -737 -91 0
-94 737 0
-94 91 0
95 -711 -2 0
-95 711 0
-95 2 0
96 -95 -713 0
-96 95 0
-96 713 0
97 -738 -94 0
-97 738 0
-97 94 0
98 -715 -709 0
-98 715 0
-98 709 0
99 -98 -33 0
-99 98 0
-99 33 0
100 -739 -97 0
-100 739 0
-100 97 0
101 -733 -710 0
-101 733 0
-101 710 0
102 -101 -34 0
-102 101 0
-102 34 0
103 -740 -100 0
-103 740 0
-103 100 0
104 -741 -1 0
-104 741 0
-104 1 0
105 -104 -20 0
-105 104 0
-105 20 0
106 -742 -103 0
-106 742 0
-106 103 0
107 -743 -717 0
-107 743 0
-107 717 0
108 -107 -27 0
-108 107 0
-108 27 0
109 -744 -106 0
-109 744 0
-109 106 0
110 -37 -733 0
-110 37 0
-110 733 0
111 -110 -32 0
-111 110 0
-111 32 0
112 -745 -109 0
-112 745 0
-112 109 0
113 -24 -699 0
-113 24 0
-113 699 0
114 -113 -7 0
-114 113 0
-114 7 0
115 -746 -112 0
-115 746 0
-115 112 0
116 -36 -709 0
-116 36 0
-116 709 0
117 -116 -33 0
-117 116 0
-117 33 0
118 -747 -115 0
-118 747 0
-118 115 0
119 -35 -730 0
-119 35 0
-119 730 0
120 -119 -726 0
-120 119 0
-120 726 0
121 -748 -118 0
-121 748 0
-121 118 0
122 -733 -728 0
-122 733 0
-122 728 0
123 -122 -749 0
-123 122 0
-123 749 0
124 -750 -121 0
-124 750 0
-124 121 0
125 -36 -702 0
-125 36 0
-125 702 0
126 -125 -29 0
-126 125 0
-126 29 0
127 -751 -124 0
-127 751 0
-127 124 0
128 -752 -709 0
-128 752 0
-128 709 0
129 -128 -38 0
-129 128 0
-129 38 0
130 -753 -127 0
-130 753 0
-130 127 0
131 -754 -2 0
-131 754 0
-131 2 0
132 -131 -27 0
-132 131 0
-132 27 0
133 -755 -130 0
-133 755 0
-133 130 0
134 -40 -4 0
-134 40 0
-134 4 0
135 -134 -707 0
-135 134 0
-135 707 0
136 -756 -133 0
-136 756 0
-136 133 0
137 -757 -11 0
-137 757 0
-137 11 0
138 -137 -735 0
-138 137 0
-138 735 0
139 -758 -136 0
-139 758 0
-139 136 0
140 -759 -760 0
-140 759 0
-140 760 0
141 -140 -43 0
-141 140 0
-141 43 0
142 -761 -139 0
-142 761 0
-142 139 0
143 -725 -702 0
-143 725 0
-143 702 0
144 -143 -29 0
-144 143 0
-144 29 0
145 -762 -142 0
-145 762 0
-145 142 0
146 -763 -730 0
-146 763 0
-146 730 0
147 -146 -28 0
-147 146 0
-147 28 0
148 -764 -145 0
-148 764 0
-148 145 0
149 -18 -711 0
-149 18 0
-149 711 0
150 -149 -22 0
-150 149 0
-150 22 0
151 -765 -148 0
-151 765 0
-151 148 0
152 -12 -701 0
-152 12 0
-152 701 0
153 -152 -20 0
-153 152 0
-153 20 0
154 -766 -151 0
-154 766 0
-154 151 0
155 -743 -701 0
-155 743 0
-155 701 0
156 -155 -767 0
-156 155 0
-156 767 0
157 -768 -154 0
-157 768 0
-157 154 0
158 -42 -30 0
-158 42 0
-158 30 0
159 -158 -769 0
-159 158 0
-159 769 0
160 -770 -157 0
-160 770 0
-160 157 0
161 -718 -699 0
-161 718 0
-161 699 0
162 -161 -5 0
-162 161 0
-162 5 0
163 -771 -160 0
-163 771 0
-163 160 0
164 -6 -698 0
-164 6 0
-164 698 0
165 -164 -17 0
-165 164 0
-165 17 0
166 -772 -163 0
-166 772 0
-166 163 0
167 -773 -713 0
-167 773 0
-167 713 0
168 -167 -17 0
-168 167 0
-168 17 0
169 -774 -166 0
-169 774 0
-169 166 0
170 -725 -9 0
-170 725 0
-170 9 0
171 -170 -775 0
-171 170 0
-171 775 0
172 -776 -169 0
-172 776 0
-172 169 0
173 -715 -702 0
-173 715 0
-173 702 0
174 -173 -8 0
-174 173 0
-174 8 0
175 -777 -172 0
-175 777 0
-175 172 0
176 -42 -702 0
-176 42 0
-176 702 0
177 -176 -8 0
-177 176 0
-177 8 0
178 -778 -175 0
-178 778 0
-178 175 0
179 -741 -702 0
-179 741 0
-179 702 0
180 -179 -11 0
-180 179 0
-180 11 0
181 -779 -178 0
-181 779 0
-181 178 0
182 -26 -4 0
-182 26 0
-182 4 0
183 -182 -43 0
-183 182 0
-183 43 0
184 -780 -181 0
-184 780 0
-184 181 0
185 -182 -32 0
-185 182 0
-185 32 0
186 -781 -184 0
-186 781 0
-186 184 0
187 -18 -714 0
-187 18 0
-187 714 0
188 -187 -35 0
-188 187 0
-188 35 0
189 -782 -186 0
-189 782 0
-189 186 0
190 -783 -730 0
-190 783 0
-190 730 0
191 -190 -44 0
-191 190 0
-191 44 0
192 -784 -189 0
-192 784 0
-192 189 0
193 -46 -775 0
-193 46 0
-193 775 0
194 -193 -731 0
-194 193 0
-194 731 0
195 -785 -192 0
-195 785 0
-195 192 0
196 -773 -26 0
-196 773 0
-196 26 0
197 -196 -6 0
-197 196 0
-197 6 0
198 -786 -195 0
-198 786 0
-198 195 0
199 -47 -773 0
-199 47 0
-199 773 0
200 -199 -31 0
-200 199 0
-200 31 0
201 -787 -198 0
-201 787 0
-201 198 0
202 -725 -2 0
-202 725 0
-202 2 0
203 -202 -25 0
-203 202 0
-203 25 0
204 -788 -201 0
-204 788 0
-204 201 0
205 -15 -1 0
-205 15 0
-205 1 0
206 -205 -23 0
-206 205 0
-206 23 0
207 -789 -204 0
-207 789 0
-207 204 0
208 -33 -29 0
-208 33 0
-208 29 0
209 -208 -44 0
-209 208 0
-209 44 0
210 -790 -207 0
-210 790 0
-210 207 0
211 -26 -18 0
-211 26 0
-211 18 0
212 -211 -763 0
-212 211 0
-212 763 0
213 -791 -210 0
-213 791 0
-213 210 0
214 -30 -4 0
-214 30 0
-214 4 0
215 -214 -48 0
-215 214 0
-215 48 0
216 -792 -213 0
-216 792 0
-216 213 0
217 -47 -793 0
-217 47 0
-217 793 0
218 -217 -794 0
-218 217 0
-218 794 0
219 -795 -216 0
-219 795 0
-219 216 0
220 -796 -714 0
-220 796 0
-220 714 0
221 -220 -43 0
-221 220 0
-221 43 0
222 -797 -219 0
-222 797 0
-222 219 0
223 -757 -33 0
-223 757 0
-223 33 0
224 -223 -28 0
-224 223 0
-224 28 0
225 -798 -222 0
-225 798 0
-225 222 0
226 -757 -12 0
-226 757 0
-226 12 0
227 -226 -783 0
-227 226 0
-227 783 0
228 -799 -225 0
-228 799 0
-228 225 0
229 -757 -4 0
-229 757 0
-229 4 0
230 -229 -8 0
-230 229 0
-230 8 0
231 -800 -228 0
-231 800 0
-231 228 0
232 -801 -22 0
-232 801 0
-232 22 0
233 -232 -705 0
-233 232 0
-233 705 0
234 -802 -231 0
-234 802 0
-234 231 0
235 -41 -754 0
-235 41 0
-235 754 0
236 -235 -707 0
-236 235 0
-236 707 0
237 -803 -234 0
-237 803 0
-237 234 0
238 -714 -5 0
-238 714 0
-238 5 0
239 -238 -22 0
-239 238 0
-239 22 0
240 -804 -237 0
-240 804 0
-240 237 0
241 -743 -6 0
-241 743 0
-241 6 0
242 -241 -707 0
-242 241 0
-242 707 0
243 -805 -240 0
-243 805 0
-243 240 0
244 -10 -698 0
-244 10 0
-244 698 0
245 -244 -31 0
-245 244 0
-245 31 0
246 -806 -243 0
-246 806 0
-246 243 0
247 -807 -711 0
-247 807 0
-247 711 0
248 -247 -741 0
-248 247 0
-248 741 0
249 -808 -246 0
-249 808 0
-249 246 0
250 -36 -26 0
-250 36 0
-250 26 0
251 -250 -730 0
-251 250 0
-251 730 0
252 -809 -249 0
-252 809 0
-252 249 0
253 -710 -1 0
-253 710 0
-253 1 0
254 -253 -707 0
-254 253 0
-254 707 0
255 -810 -252 0
-255 810 0
-255 252 0
256 -783 -5 0
-256 783 0
-256 5 0
257 -256 -24 0
-257 256 0
-257 24 0
258 -811 -255 0
-258 811 0
-258 255 0
259 -710 -705 0
-259 710 0
-259 705 0
260 -259 -49 0
-260 259 0
-260 49 0
261 -812 -258 0
-261 812 0
-261 258 0
262 -47 -763 0
-262 47 0
-262 763 0
263 -262 -707 0
-263 262 0
-263 707 0
264 -813 -261 0
-264 813 0
-264 261 0
265 -814 -711 0
-265 814 0
-265 711 0
266 -265 -749 0
-266 265 0
-266 749 0
267 -815 -264 0
-267 815 0
-267 264 0
268 -32 -698 0
-268 32 0
-268 698 0
269 -268 -794 0
-269 268 0
-269 794 0
270 -816 -267 0
-270 816 0
-270 267 0
271 -717 -710 0
-271 717 0
-271 710 0
272 -271 -33 0
-272 271 0
-272 33 0
273 -817 -270 0
-273 817 0
-273 270 0
274 -723 -9 0
-274 723 0
-274 9 0
275 -274 -7 0
-275 274 0
-275 7 0
276 -818 -273 0
-276 818 0
-276 273 0
277 -42 -32 0
-277 42 0
-277 32 0
278 -277 -29 0
-278 277 0
-278 29 0
279 -819 -276 0
-279 819 0
-279 276 0
280 -29 -793 0
-280 29 0
-280 793 0
281 -280 -726 0
-281 280 0
-281 726 0
282 -820 -279 0
-282 820 0
-282 279 0
283 -11 -3 0
-283 11 0
-283 3 0
284 -283 -731 0
-284 283 0
-284 731 0
285 -821 -282 0
-285 821 0
-285 282 0
286 -40 -721 0
-286 40 0
-286 721 0
287 -286 -731 0
-287 286 0
-287 731 0
288 -822 -285 0
-288 822 0
-288 285 0
289 -42 -725 0
-289 42 0
-289 725 0
290 -289 -752 0
-290 289 0
-290 752 0
291 -823 -288 0
-291 823 0
-291 288 0
292 -796 -775 0
-292 796 0
-292 775 0
293 -292 -25 0
-293 292 0
-293 25 0
294 -824 -291 0
-294 824 0
-294 291 0
295 -773 -39 0
-295 773 0
-295 39 0
296 -295 -783 0
-296 295 0
-296 783 0
297 -825 -294 0
-297 825 0
-297 294 0
298 -773 -42 0
-298 773 0
-298 42 0
299 -298 -8 0
-299 298 0
-299 8 0
300 -826 -297 0
-300 826 0
-300 297 0
301 -827 -6 0
-301 827 0
-301 6 0
302 -301 -23 0
-302 301 0
-302 23 0
303 -828 -300 0
-303 828 0
-303 300 0
304 -6 -701 0
-304 6 0
-304 701 0
305 -304 -44 0
-305 304 0
-305 44 0
306 -829 -303 0
-306 829 0
-306 303 0
307 -728 -7 0
-307 728 0
-307 7 0
308 -307 -29 0
-308 307 0
-308 29 0
309 -830 -306 0
-309 830 0
-309 306 0
310 -36 -2 0
-310 36 0
-310 2 0
311 -310 -37 0
-311 310 0
-311 37 0
312 -831 -309 0
-312 831 0
-312 309 0
313 -42 -743 0
-313 42 0
-313 743 0
314 -313 -7 0
-314 313 0
-314 7 0
315 -832 -312 0
-315 832 0
-315 312 0
316 -9 -701 0
-316 9 0
-316 701 0
317 -316 -754 0
-317 316 0
-317 754 0
318 -833 -315 0
-318 833 0
-318 315 0
319 -31 -18 0
-319 31 0
-319 18 0
320 -319 -28 0
-320 319 0
-320 28 0
321 -834 -318 0
-321 834 0
-321 318 0
322 -827 -793 0
-322 827 0
-322 793 0
323 -322 -783 0
-323 322 0
-323 783 0
324 -835 -321 0
-324 835 0
-324 321 0
325 -43 -699 0
-325 43 0
-325 699 0
326 -325 -38 0
-326 325 0
-326 38 0
327 -836 -324 0
-327 836 0
-327 324 0
328 -714 -701 0
-328 714 0
-328 701 0
329 -328 -717 0
-329 328 0
-329 717 0
330 -837 -327 0
-330 837 0
-330 327 0
331 -45 -42 0
-331 45 0
-331 42 0
332 -331 -714 0
-332 331 0
-332 714 0
333 -838 -330 0
-333 838 0
-333 330 0
334 -36 -715 0
-334 36 0
-334 715 0
335 -334 -23 0
-335 334 0
-335 23 0
336 -839 -333 0
-336 839 0
-336 333 0
337 -46 -714 0
-337 46 0
-337 714 0
338 -337 -37 0
-338 337 0
-338 37 0
339 -840 -336 0
-339 840 0
-339 336 0
340 -30 -702 0
-340 30 0
-340 702 0
341 -340 -705 0
-341 340 0
-341 705 0
342 -841 -339 0
-342 841 0
-342 339 0
343 -37 -15 0
-343 37 0
-343 15 0
344 -343 -27 0
-344 343 0
-344 27 0
345 -842 -342 0
-345 842 0
-345 342 0
346 -707 -2 0
-346 707 0
-346 2 0
347 -346 -28 0
-347 346 0
-347 28 0
348 -843 -345 0
-348 843 0
-348 345 0
349 -21 -702 0
-349 21 0
-349 702 0
350 -349 -7 0
-350 349 0
-350 7 0
351 -844 -348 0
-351 844 0
-351 348 0
352 -760 -3 0
-352 760 0
-352 3 0
353 -352 -752 0
-353 352 0
-353 752 0
354 -845 -351 0
-354 845 0
-354 351 0
355 -807 -12 0
-355 807 0
-355 12 0
356 -355 -32 0
-356 355 0
-356 32 0
357 -846 -354 0
-357 846 0
-357 354 0
358 -48 -30 0
-358 48 0
-358 30 0
359 -358 -801 0
-359 358 0
-359 801 0
360 -847 -357 0
-360 847 0
-360 357 0
361 -814 -6 0
-361 814 0
-361 6 0
362 -361 -11 0
-362 361 0
-362 11 0
363 -848 -360 0
-363 848 0
-363 360 0
364 -849 -25 0
-364 849 0
-364 25 0
365 -364 -705 0
-365 364 0
-365 705 0
366 -850 -363 0
-366 850 0
-366 363 0
367 -37 -728 0
-367 37 0
-367 728 0
368 -367 -726 0
-368 367 0
-368 726 0
369 -851 -366 0
-369 851 0
-369 366 0
370 -25 -9 0
-370 25 0
-370 9 0
371 -370 -49 0
-371 370 0
-371 49 0
372 -852 -369 0
-372 852 0
-372 369 0
373 -733 -1 0
-373 733 0
-373 1 0
374 -373 -743 0
-374 373 0
-374 743 0
375 -853 -372 0
-375 853 0
-375 372 0
376 -14 -699 0
-376 14 0
-376 699 0
377 -376 -713 0
-377 376 0
-377 713 0
378 -854 -375 0
-378 854 0
-378 375 0
379 -47 -26 0
-379 47 0
-379 26 0
380 -379 -794 0
-380 379 0
-380 794 0
381 -855 -378 0
-381 855 0
-381 378 0
382 -25 -24 0
-382 25 0
-382 24 0
383 -382 -707 0
-383 382 0
-383 707 0
384 -856 -381 0
-384 856 0
-384 381 0
385 -849 -21 0
-385 849 0
-385 21 0
386 -385 -38 0
-386 385 0
-386 38 0
387 -857 -384 0
-387 857 0
-387 384 0
388 -42 -19 0
-388 42 0
-388 19 0
389 -388 -44 0
-389 388 0
-389 44 0
390 -858 -387 0
-390 858 0
-390 387 0
391 -759 -3 0
-391 759 0
-391 3 0
392 -391 -794 0
-392 391 0
-392 794 0
393 -859 -390 0
-393 859 0
-393 390 0
394 -794 -45 0
-394 794 0
-394 45 0
395 -394 -8 0
-395 394 0
-395 8 0
396 -860 -393 0
-396 860 0
-396 393 0
397 -827 -13 0
-397 827 0
-397 13 0
398 -397 -32 0
-398 397 0
-398 32 0
399 -861 -396 0
-399 861 0
-399 396 0
400 -20 -6 0
-400 20 0
-400 6 0
401 -400 -767 0
-401 400 0
-401 767 0
402 -862 -399 0
-402 862 0
-402 399 0
403 -43 -711 0
-403 43 0
-403 711 0
404 -403 -702 0
-404 403 0
-404 702 0
405 -863 -402 0
-405 863 0
-405 402 0
406 -19 -698 0
-406 19 0
-406 698 0
407 -406 -752 0
-407 406 0
-407 752 0
408 -864 -405 0
-408 864 0
-408 405 0
409 -36 -700 0
-409 36 0
-409 700 0
410 -409 -27 0
-410 409 0
-410 27 0
411 -865 -408 0
-411 865 0
-411 408 0
412 -15 -698 0
-412 15 0
-412 698 0
413 -412 -17 0
-413 412 0
-413 17 0
414 -866 -411 0
-414 866 0
-414 411 0
415 -21 -10 0
-415 21 0
-415 10 0
416 -415 -794 0
-416 415 0
-416 794 0
417 -867 -414 0
-417 867 0
-417 414 0
418 -730 -715 0
-418 730 0
-418 715 0
419 -418 -735 0
-419 418 0
-419 735 0
420 -868 -417 0
-420 868 0
-420 417 0
421 -783 -9 0
-421 783 0
-421 9 0
422 -421 -25 0
-422 421 0
-422 25 0
423 -869 -420 0
-423 869 0
-423 420 0
424 -14 -4 0
-424 14 0
-424 4 0
425 -424 -7 0
-425 424 0
-425 7 0
426 -870 -423 0
-426 870 0
-426 423 0
427 -18 -12 0
-427 18 0
-427 12 0
428 -427 -754 0
-428 427 0
-428 754 0
429 -871 -426 0
-429 871 0
-429 426 0
430 -827 -12 0
-430 827 0
-430 12 0
431 -430 -8 0
-431 430 0
-431 8 0
432 -872 -429 0
-432 872 0
-432 429 0
433 -27 -16 0
-433 27 0
-433 16 0
434 -433 -43 0
-434 433 0
-434 43 0
435 -873 -432 0
-435 873 0
-435 432 0
436 -807 -783 0
-436 807 0
-436 783 0
437 -436 -32 0
-437 436 0
-437 32 0
438 -874 -435 0
-438 874 0
-438 435 0
439 -801 -9 0
-439 801 0
-439 9 0
440 -439 -29 0
-440 439 0
-440 29 0
441 -875 -438 0
-441 875 0
-441 438 0
442 -763 -26 0
-442 763 0
-442 26 0
443 -442 -7 0
-443 442 0
-443 7 0
444 -876 -441 0
-444 876 0
-444 441 0
445 -752 -721 0
-445 752 0
-445 721 0
446 -445 -7 0
-446 445 0
-446 7 0
447 -877 -444 0
-447 877 0
-447 444 0
448 -731 -4 0
-448 731 0
-448 4 0
449 -448 -8 0
-449 448 0
-449 8 0
450 -878 -447 0
-450 878 0
-450 447 0
451 -298 -767 0
-451 298 0
-451 767 0
452 -879 -450 0
-452 879 0
-452 450 0
453 -26 -6 0
-453 26 0
-453 6 0
454 -453 -735 0
-454 453 0
-454 735 0
455 -880 -452 0
-455 880 0
-455 452 0
456 -17 -13 0
-456 17 0
-456 13 0
457 -456 -33 0
-457 456 0
-457 33 0
458 -881 -455 0
-458 881 0
-458 455 0
459 -827 -24 0
-459 827 0
-459 24 0
460 -459 -728 0
-460 459 0
-460 728 0
461 -882 -458 0
-461 882 0
-461 458 0
462 -18 -15 0
-462 18 0
-462 15 0
463 -462 -24 0
-463 462 0
-463 24 0
464 -883 -461 0
-464 883 0
-464 461 0
465 -101 -39 0
-465 101 0
-465 39 0
466 -884 -464 0
-466 884 0
-466 464 0
467 -717 -793 0
-467 717 0
-467 793 0
468 -467 -726 0
-468 467 0
-468 726 0
469 -885 -466 0
-469 885 0
-469 466 0
470 -23 -713 0
-470 23 0
-470 713 0
471 -470 -28 0
-471 470 0
-471 28 0
472 -886 -469 0
-472 886 0
-472 469 0
473 -733 -3 0
-473 733 0
-473 3 0
474 -473 -731 0
-474 473 0
-474 731 0
475 -887 -472 0
-475 887 0
-475 472 0
476 -718 -775 0
-476 718 0
-476 775 0
477 -476 -44 0
-477 476 0
-477 44 0
478 -888 -475 0
-478 888 0
-478 475 0
479 -759 -700 0
-479 759 0
-479 700 0
480 -479 -20 0
-480 479 0
-480 20 0
481 -889 -478 0
-481 889 0
-481 478 0
482 -754 -13 0
-482 754 0
-482 13 0
483 -482 -3 0
-483 482 0
-483 3 0
484 -890 -481 0
-484 890 0
-484 481 0
485 -773 -717 0
-485 773 0
-485 717 0
486 -485 -726 0
-486 485 0
-486 726 0
487 -891 -484 0
-487 891 0
-487 484 0
488 -18 -700 0
-488 18 0
-488 700 0
489 -488 -43 0
-489 488 0
-489 43 0
490 -892 -487 0
-490 892 0
-490 487 0
491 -730 -5 0
-491 730 0
-491 5 0
492 -491 -43 0
-492 491 0
-492 43 0
493 -893 -490 0
-493 893 0
-493 490 0
494 -40 -698 0
-494 40 0
-494 698 0
495 -494 -23 0
-495 494 0
-495 23 0
496 -894 -493 0
-496 894 0
-496 493 0
497 -895 -719 0
-497 895 0
-497 719 0
498 -497 -767 0
-498 497 0
-498 767 0
499 -896 -496 0
-499 896 0
-499 496 0
500 -5 -3 0
-500 5 0
-500 3 0
501 -500 -783 0
-501 500 0
-501 783 0
502 -897 -499 0
-502 897 0
-502 499 0
503 -48 -19 0
-503 48 0
-503 19 0
504 -503 -705 0
-504 503 0
-504 705 0
505 -898 -502 0
-505 898 0
-505 502 0
506 -41 -698 0
-506 41 0
-506 698 0
507 -506 -713 0
-507 506 0
-507 713 0
508 -899 -505 0
-508 899 0
-508 505 0
509 -158 -34 0
-509 158 0
-509 34 0
510 -900 -508 0
-510 900 0
-510 508 0
511 -12 -5 0
-511 12 0
-511 5 0
512 -511 -741 0
-512 511 0
-512 741 0
513 -901 -510 0
-513 901 0
-513 510 0
514 -717 -709 0
-514 717 0
-514 709 0
515 -514 -28 0
-515 514 0
-515 28 0
516 -902 -513 0
-516 902 0
-516 513 0
517 -759 -4 0
-517 759 0
-517 4 0
518 -517 -20 0
-518 517 0
-518 20 0
519 -903 -516 0
-519 903 0
-519 516 0
520 -18 -9 0
-520 18 0
-520 9 0
521 -520 -46 0
-521 520 0
-521 46 0
522 -904 -519 0
-522 904 0
-522 519 0
523 -827 -17 0
-523 827 0
-523 17 0
524 -523 -29 0
-524 523 0
-524 29 0
525 -905 -522 0
-525 905 0
-525 522 0
526 -26 -2 0
-526 26 0
-526 2 0
527 -526 -7 0
-527 526 0
-527 7 0
528 -906 -525 0
-528 906 0
-528 525 0
529 -33 -752 0
-529 33 0
-529 752 0
530 -529 -794 0
-530 529 0
-530 794 0
531 -907 -528 0
-531 907 0
-531 528 0
532 -796 -743 0
-532 796 0
-532 743 0
533 -532 -700 0
-533 532 0
-533 700 0
534 -908 -531 0
-534 908 0
-534 531 0
535 -794 -713 0
-535 794 0
-535 713 0
536 -535 -909 0
-536 535 0
-536 909 0
537 -910 -534 0
-537 910 0
-537 534 0
538 -725 -17 0
-538 725 0
-538 17 0
539 -538 -909 0
-539 538 0
-539 909 0
540 -911 -537 0
-540 911 0
-540 537 0
541 -473 -8 0
-541 473 0
-541 8 0
542 -912 -540 0
-542 912 0
-542 540 0
543 -721 -793 0
-543 721 0
-543 793 0
544 -543 -801 0
-544 543 0
-544 801 0
545 -913 -542 0
-545 913 0
-545 542 0
546 -36 -705 0
-546 36 0
-546 705 0
547 -546 -769 0
-547 546 0
-547 769 0
548 -914 -545 0
-548 914 0
-548 545 0
549 -45 -710 0
-549 45 0
-549 710 0
550 -549 -794 0
-550 549 0
-550 794 0
551 -915 -548 0
-551 915 0
-551 548 0
552 -29 -735 0
-552 29 0
-552 735 0
553 -552 -44 0
-553 552 0
-553 44 0
554 -916 -551 0
-554 916 0
-554 551 0
555 -731 -8 0
-555 731 0
-555 8 0
556 -555 -28 0
-556 555 0
-556 28 0
557 -917 -554 0
-557 917 0
-557 554 0
558 -814 -733 0
-558 814 0
-558 733 0
559 -558 -741 0
-559 558 0
-559 741 0
560 -918 -557 0
-560 918 0
-560 557 0
561 -25 -723 0
-561 25 0
-561 723 0
562 -561 -726 0
-562 561 0
-562 726 0
563 -919 -560 0
-563 919 0
-563 560 0
564 -4 -698 0
-564 4 0
-564 698 0
565 -564 -30 0
-565 564 0
-565 30 0
566 -920 -563 0
-566 920 0
-566 563 0
567 -699 -2 0
-567 699 0
-567 2 0
568 -567 -714 0
-568 567 0
-568 714 0
569 -921 -566 0
-569 921 0
-569 566 0
570 -759 -721 0
-570 759 0
-570 721 0
571 -570 -767 0
-571 570 0
-571 767 0
572 -922 -569 0
-572 922 0
-572 569 0
573 -46 -36 0
-573 46 0
-573 36 0
574 -573 -20 0
-574 573 0
-574 20 0
575 -923 -572 0
-575 923 0
-575 572 0
576 -45 -2 0
-576 45 0
-576 2 0
577 -576 -24 0
-577 576 0
-577 24 0
578 -924 -575 0
-578 924 0
-578 575 0
579 -24 -9 0
-579 24 0
-579 9 0
580 -579 -752 0
-580 579 0
-580 752 0
581 -925 -578 0
-581 925 0
-581 578 0
582 -27 -698 0
-582 27 0
-582 698 0
583 -582 -769 0
-583 582 0
-583 769 0
584 -926 -581 0
-584 926 0
-584 581 0
585 -43 -41 0
-585 43 0
-585 41 0
586 -585 -38 0
-586 585 0
-586 38 0
587 -927 -584 0
-587 927 0
-587 584 0
588 -45 -18 0
-588 45 0
-588 18 0
589 -588 -728 0
-589 588 0
-589 728 0
590 -928 -587 0
-590 928 0
-590 587 0
591 -721 -5 0
-591 721 0
-591 5 0
592 -591 -767 0
-592 591 0
-592 767 0
593 -929 -590 0
-593 929 0
-593 590 0
594 -30 -1 0
-594 30 0
-594 1 0
595 -594 -827 0
-595 594 0
-595 827 0
596 -930 -593 0
-596 930 0
-596 593 0
597 -719 -15 0
-597 719 0
-597 15 0
598 -597 -769 0
-598 597 0
-598 769 0
599 -931 -596 0
-599 931 0
-599 596 0
600 -725 -20 0
-600 725 0
-600 20 0
601 -600 -28 0
-601 600 0
-601 28 0
602 -932 -599 0
-602 932 0
-602 599 0
603 -796 -34 0
-603 796 0
-603 34 0
604 -603 -27 0
-604 603 0
-604 27 0
605 -933 -602 0
-605 933 0
-605 602 0
606 -50 -895 0
-606 50 0
-606 895 0
607 -606 -20 0
-607 606 0
-607 20 0
608 -934 -605 0
-608 934 0
-608 605 0
609 -895 -9 0
-609 895 0
-609 9 0
610 -609 -7 0
-610 609 0
-610 7 0
611 -935 -608 0
-611 935 0
-611 608 0
612 -741 -728 0
-612 741 0
-612 728 0
613 -612 -17 0
-613 612 0
-613 17 0
614 -936 -611 0
-614 936 0
-614 611 0
615 -21 -13 0
-615 21 0
-615 13 0
616 -615 -29 0
-616 615 0
-616 29 0
617 -937 -614 0
-617 937 0
-617 614 0
618 -34 -711 0
-618 34 0
-618 711 0
619 -618 -702 0
-619 618 0
-619 702 0
620 -938 -617 0
-620 938 0
-620 617 0
621 -757 -814 0
-621 757 0
-621 814 0
622 -621 -730 0
-622 621 0
-622 730 0
623 -939 -620 0
-623 939 0
-623 620 0
624 -718 -4 0
-624 718 0
-624 4 0
625 -624 -895 0
-625 624 0
-625 895 0
626 -940 -623 0
-626 940 0
-626 623 0
627 -24 -4 0
-627 24 0
-627 4 0
628 -627 -33 0
-628 627 0
-628 33 0
629 -941 -626 0
-629 941 0
-629 626 0
630 -752 -717 0
-630 752 0
-630 717 0
631 -630 -20 0
-631 630 0
-631 20 0
632 -942 -629 0
-632 942 0
-632 629 0
633 -17 -2 0
-633 17 0
-633 2 0
634 -633 -7 0
-634 633 0
-634 7 0
635 -943 -632 0
-635 943 0
-635 632 0
636 -39 -24 0
-636 39 0
-636 24 0
637 -636 -909 0
-637 636 0
-637 909 0
638 -944 -635 0
-638 944 0
-638 635 0
639 -773 -25 0
-639 773 0
-639 25 0
640 -639 -726 0
-640 639 0
-640 726 0
641 -945 -638 0
-641 945 0
-641 638 0
642 -415 -14 0
-642 415 0
-642 14 0
643 -946 -641 0
-643 946 0
-643 641 0
644 -41 -26 0
-644 41 0
-644 26 0
645 -644 -741 0
-645 644 0
-645 741 0
646 -947 -643 0
-646 947 0
-646 643 0
647 -46 -26 0
-647 46 0
-647 26 0
648 -647 -741 0
-648 647 0
-648 741 0
649 -948 -646 0
-649 948 0
-649 646 0
650 -33 -24 0
-650 33 0
-650 24 0
651 -650 -44 0
-651 650 0
-651 44 0
652 -949 -649 0
-652 949 0
-652 649 0
653 -950 -699 0
-653 950 0
-653 699 0
654 -653 -32 0
-654 653 0
-654 32 0
655 -951 -652 0
-655 951 0
-655 652 0
656 -731 -719 0
-656 731 0
-656 719 0
657 -656 -49 0
-657 656 0
-657 49 0
658 -952 -655 0
-658 952 0
-658 655 0
659 -801 -21 0
-659 801 0
-659 21 0
660 -659 -741 0
-660 659 0
-660 741 0
661 -953 -658 0
-661 953 0
-661 658 0
662 -714 -10 0
-662 714 0
-662 10 0
663 -662 -35 0
-663 662 0
-663 35 0
664 -954 -661 0
-664 954 0
-664 661 0
665 -759 -27 0
-665 759 0
-665 27 0
666 -665 -23 0
-666 665 0
-666 23 0
667 -955 -664 0
-667 955 0
-667 664 0
668 -47 -12 0
-668 47 0
-668 12 0
669 -668 -749 0
-669 668 0
-669 749 0
670 -956 -667 0
-670 956 0
-670 667 0
671 -950 -710 0
-671 950 0
-671 710 0
672 -671 -27 0
-672 671 0
-672 27 0
673 -957 -670 0
-673 957 0
-673 670 0
674 -35 -21 0
-674 35 0
-674 21 0
675 -674 -715 0
-675 674 0
-675 715 0
676 -958 -673 0
-676 958 0
-676 673 0
677 -14 -13 0
-677 14 0
-677 13 0
678 -677 -35 0
-678 677 0
-678 35 0
679 -959 -676 0
-679 959 0
-679 676 0
680 -24 -713 0
-680 24 0
-680 713 0
681 -680 -769 0
-681 680 0
-681 769 0
682 -960 -679 0
-682 960 0
-682 679 0
683 -43 -759 0
-683 43 0
-683 759 0
684 -683 -28 0
-684 683 0
-684 28 0
685 -961 -682 0
-685 961 0
-685 682 0
686 -36 -849 0
-686 36 0
-686 849 0
687 -686 -11 0
-687 686 0
-687 11 0
688 -962 -685 0
-688 962 0
-688 685 0
689 -9 -4 0
-689 9 0
-689 4 0
690 -689 -728 0
-690 689 0
-690 728 0
691 -963 -688 0
-691 963 0
-691 688 0
692 -8 -699 0
-692 8 0
-692 699 0
693 -692 -28 0
-693 692 0
-693 28 0
694 -964 -691 0
-694 964 0
-694 691 0
695 -759 -24 0
-695 759 0
-695 24 0
696 -695 -702 0
-696 695 0
-696 702 0
697 -965 -694 0
-697 965 0
-697 694 0
-698 -1 0
698 1 0
-699 -3 0
699 3 0
-700 -5 0
700 5 0
-701 -4 0
701 4 0
-702 -6 0
702 6 0
-703 -54 0
703 54 0
-704 -52 0
704 52 0
-705 -7 0
705 7 0
-706 -57 0
706 57 0
-707 -11 0
707 11 0
-708 -60 0
708 60 0
-709 -13 0
709 13 0
-710 -12 0
710 12 0
-711 -14 0
711 14 0
-712 -63 0
712 63 0
-713 -16 0
713 16 0
-714 -15 0
714 15 0
-715 -17 0
715 17 0
-716 -66 0
716 66 0
-717 -19 0
717 19 0
-718 -18 0
718 18 0
-719 -20 0
719 20 0
-720 -69 0
720 69 0
-721 -21 0
721 21 0
-722 -72 0
722 72 0
-723 -24 0
723 24 0
-724 -75 0
724 75 0
-725 -26 0
725 26 0
-726 -28 0
726 28 0
-727 -78 0
727 78 0
-728 -25 0
728 25 0
-729 -81 0
729 81 0
-730 -22 0
730 22 0
-731 -29 0
731 29 0
-732 -84 0
732 84 0
-733 -30 0
733 30 0
-734 -87 0
734 87 0
-735 -23 0
735 23 0
-736 -90 0
736 90 0
-737 -93 0
737 93 0
-738 -96 0
738 96 0
-739 -99 0
739 99 0
-740 -102 0
740 102 0
-741 -35 0
741 35 0
-742 -105 0
742 105 0
-743 -36 0
743 36 0
-744 -108 0
744 108 0
-745 -111 0
745 111 0
-746 -114 0
746 114 0
-747 -117 0
747 117 0
-748 -120 0
748 120 0
-749 -33 0
749 33 0
-750 -123 0
750 123 0
-751 -126 0
751 126 0
-752 -32 0
752 32 0
-753 -129 0
753 129 0
-754 -39 0
754 39 0
-755 -132 0
755 132 0
-756 -135 0
756 135 0
-757 -41 0
757 41 0
-758 -138 0
758 138 0
-759 -42 0
759 42 0
-760 -9 0
760 9 0
-761 -141 0
761 141 0
-762 -144 0
762 144 0
-763 -31 0
763 31 0
-764 -147 0
764 147 0
-765 -150 0
765 150 0
-766 -153 0
766 153 0
-767 -38 0
767 38 0
-768 -156 0
768 156 0
-769 -44 0
769 44 0
-770 -159 0
770 159 0
-771 -162 0
771 162 0
-772 -165 0
772 165 0
-773 -45 0
773 45 0
-774 -168 0
774 168 0
-775 -2 0
775 2 0
-776 -171 0
776 171 0
-777 -174 0
777 174 0
-778 -177 0
778 177 0
-779 -180 0
779 180 0
-780 -183 0
780 183 0
-781 -185 0
781 185 0
-782 -188 0
782 188 0
-783 -34 0
783 34 0
-784 -191 0
784 191 0
-785 -194 0
785 194 0
-786 -197 0
786 197 0
-787 -200 0
787 200 0
-788 -203 0
788 203 0
-789 -206 0
789 206 0
-790 -209 0
790 209 0
-791 -212 0
791 212 0
-792 -215 0
792 215 0
-793 -10 0
793 10 0
-794 -49 0
794 49 0
-795 -218 0
795 218 0
-796 -47 0
796 47 0
-797 -221 0
797 221 0
-798 -224 0
798 224 0
-799 -227 0
799 227 0
-800 -230 0
800 230 0
-801 -46 0
801 46 0
-802 -233 0
802 233 0
-803 -236 0
803 236 0
-804 -239 0
804 239 0
-805 -242 0
805 242 0
-806 -245 0
806 245 0
-807 -48 0
807 48 0
-808 -248 0
808 248 0
-809 -251 0
809 251 0
-810 -254 0
810 254 0
-811 -257 0
811 257 0
-812 -260 0
812 260 0
-813 -263 0
813 263 0
-814 -40 0
814 40 0
-815 -266 0
815 266 0
-816 -269 0
816 269 0
-817 -272 0
817 272 0
-818 -275 0
818 275 0
-819 -278 0
819 278 0
-820 -281 0
820 281 0
-821 -284 0
821 284 0
-822 -287 0
822 287 0
-823 -290 0
823 290 0
-824 -293 0
824 293 0
-825 -296 0
825 296 0
-826 -299 0
826 299 0
-827 -37 0
827 37 0
-828 -302 0
828 302 0
-829 -305 0
829 305 0
-830 -308 0
830 308 0
-831 -311 0
831 311 0
-832 -314 0
832 314 0
-833 -317 0
833 317 0
-834 -320 0
834 320 0
-835 -323 0
835 323 0
-836 -326 0
836 326 0
-837 -329 0
837 329 0
-838 -332 0
838 332 0
-839 -335 0
839 335 0
-840 -338 0
840 338 0
-841 -341 0
841 341 0
-842 -344 0
842 344 0
-843 -347 0
843 347 0
-844 -350 0
844 350 0
-845 -353 0
845 353 0
-846 -356 0
846 356 0
-847 -359 0
847 359 0
-848 -362 0
848 362 0
-849 -27 0
849 27 0
-850 -365 0
850 365 0
-851 -368 0
851 368 0
-852 -371 0
852 371 0
-853 -374 0
853 374 0
-854 -377 0
854 377 0
-855 -380 0
855 380 0
-856 -383 0
856 383 0
-857 -386 0
857 386 0
-858 -389 0
858 389 0
-859 -392 0
859 392 0
-860 -395 0
860 395 0
-861 -398 0
861 398 0
-862 -401 0
862 401 0
-863 -404 0
863 404 0
-864 -407 0
864 407 0
-865 -410 0
865 410 0
-866 -413 0
866 413 0
-867 -416 0
867 416 0
-868 -419 0
868 419 0
-869 -422 0
869 422 0
-870 -425 0
870 425 0
-871 -428 0
871 428 0
-872 -431 0
872 431 0
-873 -434 0
873 434 0
-874 -437 0
874 437 0
-875 -440 0
875 440 0
-876 -443 0
876 443 0
-877 -446 0
877 446 0
-878 -449 0
878 449 0
-879 -451 0
879 451 0
-880 -454 0
880 454 0
-881 -457 0
881 457 0
-882 -460 0
882 460 0
-883 -463 0
883 463 0
-884 -465 0
884 465 0
-885 -468 0
885 468 0
-886 -471 0
886 471 0
-887 -474 0
887 474 0
-888 -477 0
888 477 0
-889 -480 0
889 480 0
-890 -483 0
890 483 0
-891 -486 0
891 486 0
-892 -489 0
892 489 0
-893 -492 0
893 492 0
-894 -495 0
894 495 0
-895 -43 0
895 43 0
-896 -498 0
896 498 0
-897 -501 0
897 501 0
-898 -504 0
898 504 0
-899 -507 0
899 507 0
-900 -509 0
900 509 0
-901 -512 0
901 512 0
-902 -515 0
902 515 0
-903 -518 0
903 518 0
-904 -521 0
904 521 0
-905 -524 0
905 524 0
-906 -527 0
906 527 0
-907 -530 0
907 530 0
-908 -533 0
908 533 0
-909 -8 0
909 8 0
-910 -536 0
910 536 0
-911 -539 0
911 539 0
-912 -541 0
912 541 0
-913 -544 0
913 544 0
-914 -547 0
914 547 0
-915 -550 0
915 550 0
-916 -553 0
916 553 0
-917 -556 0
917 556 0
-918 -559 0
918 559 0
-919 -562 0
919 562 0
-920 -565 0
920 565 0
-921 -568 0
921 568 0
-922 -571 0
922 571 0
-923 -574 0
923 574 0
-924 -577 0
924 577 0
-925 -580 0
925 580 0
-926 -583 0
926 583 0
-927 -586 0
927 586 0
-928 -589 0
928 589 0
-929 -592 0
929 592 0
-930 -595 0
930 595 0
-931 -598 0
931 598 0
-932 -601 0
932 601 0
-933 -604 0
933 604 0
-934 -607 0
934 607 0
-935 -610 0
935 610 0
-936 -613 0
936 613 0
-937 -616 0
937 616 0
-938 -619 0
938 619 0
-939 -622 0
939 622 0
-940 -625 0
940 625 0
-941 -628 0
941 628 0
-942 -631 0
942 631 0
-943 -634 0
943 634 0
-944 -637 0
944 637 0
-945 -640 0
945 640 0
-946 -642 0
946 642 0
-947 -645 0
947 645 0
-948 -648 0
948 648 0
-949 -651 0
949 651 0
-950 -50 0
950 50 0
-951 -654 0
951 654 0
-952 -657 0
952 657 0
-953 -660 0
953 660 0
-954 -663 0
954 663 0
-955 -666 0
955 666 0
-956 -669 0
956 669 0
-957 -672 0
957 672 0
-958 -675 0
958 675 0
-959 -678 0
959 678 0
-960 -681 0
960 681 0
-961 -684 0
961 684 0
-962 -687 0
962 687 0
-963 -690 0
963 690 0
-964 -693 0
964 693 0
-965 -696 0
965 696 0
697 0
